(set-info :source |printed by MathSAT|)
(declare-fun call_rtp._X4_ () Int)
(declare-fun _X8_ () Int)
(declare-fun call_rtp.ite40 () Int)
(declare-fun call_rtp.ite35 () Int)
(declare-fun call_rtp.ite44 () Int)
(declare-fun call_rtp.ite4 () Int)
(declare-fun call_rtp.ite36 () Int)
(declare-fun call_rtp.ite15 () Int)
(declare-fun call_rtp.ite20 () Int)
(declare-fun call_rtp.ite49 () Int)
(declare-fun env () Bool)
(declare-fun call_rtp.flby4 () Int)
(declare-fun call_rtp.ite8 () Int)
(declare-fun call_rtp._X2_ () Int)
(declare-fun call_rtp.ite3 () Int)
(declare-fun call_rtp.ite39 () Int)
(declare-fun param_e01 () Bool)
(declare-fun _X5_ () Int)
(declare-fun call_Sofar.Sofar () Bool)
(declare-fun _X3_ () Int)
(declare-fun param_e04 () Bool)
(declare-fun param_e05 () Bool)
(declare-fun call_rtp.ite32 () Int)
(declare-fun call_rtp.ite43 () Int)
(declare-fun param_e11 () Bool)
(declare-fun call_rtp.erreur () Bool)
(declare-fun _X6_ () Int)
(declare-fun call_rtp.ite11 () Int)
(declare-fun call_rtp.ite21 () Int)
(declare-fun call_rtp.ite16 () Int)
(declare-fun call_rtp.ite13 () Int)
(declare-fun call_rtp.ite19 () Int)
(declare-fun call_rtp.ite5 () Int)
(declare-fun param_e08 () Bool)
(declare-fun call_rtp.ite47 () Int)
(declare-fun call_rtp.ite10 () Int)
(declare-fun call_rtp._X8_ () Int)
(declare-fun param_e10 () Bool)
(declare-fun call_rtp.ite24 () Int)
(declare-fun call_rtp.ite27 () Int)
(declare-fun call_rtp.ite42 () Int)
(declare-fun _X9_ () Int)
(declare-fun _X1_ () Int)
(declare-fun param_e03 () Bool)
(declare-fun param_e02 () Bool)
(declare-fun call_rtp.ite30 () Int)
(declare-fun call_rtp.flby7 () Int)
(declare-fun call_rtp.ite46 () Int)
(declare-fun call_rtp.flby2 () Int)
(declare-fun call_rtp.ite22 () Int)
(declare-fun call_rtp._X6_ () Int)
(declare-fun call_Sofar.flby () Bool)
(declare-fun call_rtp.ite17 () Int)
(declare-fun call_rtp.ite6 () Int)
(declare-fun call_rtp.ite28 () Int)
(declare-fun call_rtp.flby () Int)
(declare-fun call_rtp._X5_ () Int)
(declare-fun call_rtp._X3_ () Int)
(declare-fun _X7_ () Int)
(declare-fun call_rtp.flby9 () Int)
(declare-fun call_rtp.ite41 () Int)
(declare-fun call_rtp.ite9 () Int)
(declare-fun _X4_ () Int)
(declare-fun _OK_ () Bool)
(declare-fun call_rtp.ite23 () Int)
(declare-fun call_rtp.ite48 () Int)
(declare-fun call_rtp.flby6 () Int)
(declare-fun call_rtp.ite () Bool)
(declare-fun call_rtp.ite7 () Int)
(declare-fun call_rtp.ite34 () Int)
(declare-fun call_rtp.ite12 () Int)
(declare-fun call_rtp._X1_ () Int)
(declare-fun param_e06 () Bool)
(declare-fun call_rtp.ite37 () Int)
(declare-fun call_rtp.ite45 () Int)
(declare-fun call_rtp.flby8 () Int)
(declare-fun call_rtp.ite25 () Int)
(declare-fun call_rtp.ite38 () Int)
(declare-fun call_excludes12.excludes () Bool)
(declare-fun param_e07 () Bool)
(declare-fun _X2_ () Int)
(declare-fun param_e09 () Bool)
(declare-fun call_rtp._X9_ () Int)
(declare-fun call_rtp.ite33 () Int)
(declare-fun call_rtp.ite31 () Int)
(declare-fun call_rtp.ite14 () Int)
(declare-fun call_rtp.flby5 () Int)
(declare-fun call_rtp.ite26 () Int)
(declare-fun erreur () Bool)
(declare-fun call_rtp.ite29 () Int)
(declare-fun call_rtp.ite18 () Int)
(declare-fun call_rtp.ite2 () Int)
(declare-fun param_e12 () Bool)
(declare-fun call_rtp._X7_ () Int)
(declare-fun call_rtp.flby3 () Int)
(define-fun .def_1501 () Bool (= call_Sofar.flby call_Sofar.Sofar))
(define-fun .def_1333 () Bool (not param_e02))
(define-fun .def_1138 () Bool (not param_e01))
(define-fun .def_1399 () Bool (and .def_1138 .def_1333))
(define-fun .def_1157 () Bool (not param_e03))
(define-fun .def_1400 () Bool (and .def_1157 .def_1399))
(define-fun .def_1359 () Bool (not param_e04))
(define-fun .def_1401 () Bool (and .def_1359 .def_1400))
(define-fun .def_1110 () Bool (not param_e05))
(define-fun .def_1402 () Bool (and .def_1110 .def_1401))
(define-fun .def_1104 () Bool (not param_e06))
(define-fun .def_1403 () Bool (and .def_1104 .def_1402))
(define-fun .def_1218 () Bool (not param_e07))
(define-fun .def_1404 () Bool (and .def_1218 .def_1403))
(define-fun .def_1258 () Bool (not param_e08))
(define-fun .def_1405 () Bool (and .def_1258 .def_1404))
(define-fun .def_1117 () Bool (not param_e09))
(define-fun .def_1406 () Bool (and .def_1117 .def_1405))
(define-fun .def_1124 () Bool (not param_e10))
(define-fun .def_1407 () Bool (and .def_1124 .def_1406))
(define-fun .def_1131 () Bool (not param_e11))
(define-fun .def_1408 () Bool (and .def_1131 .def_1407))
(define-fun .def_1145 () Bool (not param_e12))
(define-fun .def_1486 () Bool (and .def_1145 .def_1408))
(define-fun .def_1475 () Bool (and param_e01 .def_1333))
(define-fun .def_1476 () Bool (and .def_1157 .def_1475))
(define-fun .def_1477 () Bool (and .def_1359 .def_1476))
(define-fun .def_1478 () Bool (and .def_1110 .def_1477))
(define-fun .def_1479 () Bool (and .def_1104 .def_1478))
(define-fun .def_1480 () Bool (and .def_1218 .def_1479))
(define-fun .def_1481 () Bool (and .def_1258 .def_1480))
(define-fun .def_1482 () Bool (and .def_1117 .def_1481))
(define-fun .def_1483 () Bool (and .def_1124 .def_1482))
(define-fun .def_1484 () Bool (and .def_1131 .def_1483))
(define-fun .def_1485 () Bool (and .def_1145 .def_1484))
(define-fun .def_1487 () Bool (or .def_1485 .def_1486))
(define-fun .def_1464 () Bool (and .def_1138 param_e02))
(define-fun .def_1465 () Bool (and .def_1157 .def_1464))
(define-fun .def_1466 () Bool (and .def_1359 .def_1465))
(define-fun .def_1467 () Bool (and .def_1110 .def_1466))
(define-fun .def_1468 () Bool (and .def_1104 .def_1467))
(define-fun .def_1469 () Bool (and .def_1218 .def_1468))
(define-fun .def_1470 () Bool (and .def_1258 .def_1469))
(define-fun .def_1471 () Bool (and .def_1117 .def_1470))
(define-fun .def_1472 () Bool (and .def_1124 .def_1471))
(define-fun .def_1473 () Bool (and .def_1131 .def_1472))
(define-fun .def_1474 () Bool (and .def_1145 .def_1473))
(define-fun .def_1488 () Bool (or .def_1474 .def_1487))
(define-fun .def_1454 () Bool (and param_e03 .def_1399))
(define-fun .def_1455 () Bool (and .def_1359 .def_1454))
(define-fun .def_1456 () Bool (and .def_1110 .def_1455))
(define-fun .def_1457 () Bool (and .def_1104 .def_1456))
(define-fun .def_1458 () Bool (and .def_1218 .def_1457))
(define-fun .def_1459 () Bool (and .def_1258 .def_1458))
(define-fun .def_1460 () Bool (and .def_1117 .def_1459))
(define-fun .def_1461 () Bool (and .def_1124 .def_1460))
(define-fun .def_1462 () Bool (and .def_1131 .def_1461))
(define-fun .def_1463 () Bool (and .def_1145 .def_1462))
(define-fun .def_1489 () Bool (or .def_1463 .def_1488))
(define-fun .def_1445 () Bool (and param_e04 .def_1400))
(define-fun .def_1446 () Bool (and .def_1110 .def_1445))
(define-fun .def_1447 () Bool (and .def_1104 .def_1446))
(define-fun .def_1448 () Bool (and .def_1218 .def_1447))
(define-fun .def_1449 () Bool (and .def_1258 .def_1448))
(define-fun .def_1450 () Bool (and .def_1117 .def_1449))
(define-fun .def_1451 () Bool (and .def_1124 .def_1450))
(define-fun .def_1452 () Bool (and .def_1131 .def_1451))
(define-fun .def_1453 () Bool (and .def_1145 .def_1452))
(define-fun .def_1490 () Bool (or .def_1453 .def_1489))
(define-fun .def_1437 () Bool (and param_e05 .def_1401))
(define-fun .def_1438 () Bool (and .def_1104 .def_1437))
(define-fun .def_1439 () Bool (and .def_1218 .def_1438))
(define-fun .def_1440 () Bool (and .def_1258 .def_1439))
(define-fun .def_1441 () Bool (and .def_1117 .def_1440))
(define-fun .def_1442 () Bool (and .def_1124 .def_1441))
(define-fun .def_1443 () Bool (and .def_1131 .def_1442))
(define-fun .def_1444 () Bool (and .def_1145 .def_1443))
(define-fun .def_1491 () Bool (or .def_1444 .def_1490))
(define-fun .def_1430 () Bool (and param_e06 .def_1402))
(define-fun .def_1431 () Bool (and .def_1218 .def_1430))
(define-fun .def_1432 () Bool (and .def_1258 .def_1431))
(define-fun .def_1433 () Bool (and .def_1117 .def_1432))
(define-fun .def_1434 () Bool (and .def_1124 .def_1433))
(define-fun .def_1435 () Bool (and .def_1131 .def_1434))
(define-fun .def_1436 () Bool (and .def_1145 .def_1435))
(define-fun .def_1492 () Bool (or .def_1436 .def_1491))
(define-fun .def_1424 () Bool (and param_e07 .def_1403))
(define-fun .def_1425 () Bool (and .def_1258 .def_1424))
(define-fun .def_1426 () Bool (and .def_1117 .def_1425))
(define-fun .def_1427 () Bool (and .def_1124 .def_1426))
(define-fun .def_1428 () Bool (and .def_1131 .def_1427))
(define-fun .def_1429 () Bool (and .def_1145 .def_1428))
(define-fun .def_1493 () Bool (or .def_1429 .def_1492))
(define-fun .def_1419 () Bool (and param_e08 .def_1404))
(define-fun .def_1420 () Bool (and .def_1117 .def_1419))
(define-fun .def_1421 () Bool (and .def_1124 .def_1420))
(define-fun .def_1422 () Bool (and .def_1131 .def_1421))
(define-fun .def_1423 () Bool (and .def_1145 .def_1422))
(define-fun .def_1494 () Bool (or .def_1423 .def_1493))
(define-fun .def_1415 () Bool (and param_e09 .def_1405))
(define-fun .def_1416 () Bool (and .def_1124 .def_1415))
(define-fun .def_1417 () Bool (and .def_1131 .def_1416))
(define-fun .def_1418 () Bool (and .def_1145 .def_1417))
(define-fun .def_1495 () Bool (or .def_1418 .def_1494))
(define-fun .def_1412 () Bool (and param_e10 .def_1406))
(define-fun .def_1413 () Bool (and .def_1131 .def_1412))
(define-fun .def_1414 () Bool (and .def_1145 .def_1413))
(define-fun .def_1496 () Bool (or .def_1414 .def_1495))
(define-fun .def_1410 () Bool (and param_e11 .def_1407))
(define-fun .def_1411 () Bool (and .def_1145 .def_1410))
(define-fun .def_1497 () Bool (or .def_1411 .def_1496))
(define-fun .def_1409 () Bool (and param_e12 .def_1408))
(define-fun .def_1498 () Bool (or .def_1409 .def_1497))
(define-fun .def_1499 () Bool (= call_excludes12.excludes .def_1498))
(define-fun .def_1397 () Bool (= call_rtp.erreur call_rtp.ite))
(define-fun .def_1395 () Bool (= call_rtp.flby9 call_rtp._X9_))
(define-fun .def_1393 () Bool (= call_rtp.flby8 call_rtp._X8_))
(define-fun .def_1391 () Bool (= call_rtp.flby7 call_rtp._X7_))
(define-fun .def_1389 () Bool (= call_rtp.flby6 call_rtp._X6_))
(define-fun .def_1387 () Bool (= call_rtp.flby5 call_rtp._X5_))
(define-fun .def_1385 () Bool (= call_rtp.flby4 call_rtp._X4_))
(define-fun .def_1383 () Bool (= call_rtp.flby3 call_rtp._X3_))
(define-fun .def_1381 () Bool (= call_rtp.flby2 call_rtp._X2_))
(define-fun .def_1378 () Bool (= call_rtp.flby call_rtp._X1_))
(define-fun .def_1373 () Bool (<= 2 call_rtp._X1_))
(define-fun .def_1375 () Bool (not .def_1373))
(define-fun .def_1376 () Bool (or call_rtp.ite .def_1375))
(define-fun .def_1372 () Bool (not call_rtp.ite))
(define-fun .def_1374 () Bool (or .def_1372 .def_1373))
(define-fun .def_1377 () Bool (and .def_1374 .def_1376))
(define-fun .def_1379 () Bool (and .def_1377 .def_1378))
(define-fun .def_1367 () Bool (= call_rtp.ite22 call_rtp.ite23))
(define-fun .def_1368 () Bool (or param_e04 .def_1367))
(define-fun .def_1364 () Bool (= call_rtp.ite20 call_rtp.ite23))
(define-fun .def_1365 () Bool (or .def_1359 .def_1364))
(define-fun .def_1358 () Bool (= call_rtp.ite18 call_rtp.ite15))
(define-fun .def_1360 () Bool (or .def_1358 .def_1359))
(define-fun .def_1354 () Bool (= call_rtp.ite17 call_rtp.ite18))
(define-fun .def_1356 () Bool (or .def_1354 param_e04))
(define-fun .def_1361 () Bool (and .def_1356 .def_1360))
(define-fun .def_1366 () Bool (and .def_1361 .def_1365))
(define-fun .def_1369 () Bool (and .def_1366 .def_1368))
(define-fun .def_1350 () Bool (= call_rtp.ite19 call_rtp.ite14))
(define-fun .def_1351 () Bool (or .def_1157 .def_1350))
(define-fun .def_1347 () Bool (= call_rtp.ite19 call_rtp.ite18))
(define-fun .def_1348 () Bool (or param_e03 .def_1347))
(define-fun .def_1352 () Bool (and .def_1348 .def_1351))
(define-fun .def_1341 () Bool (= call_rtp.ite12 call_rtp.ite13))
(define-fun .def_1342 () Bool (or param_e02 .def_1341))
(define-fun .def_1338 () Bool (= call_rtp.ite10 call_rtp.ite13))
(define-fun .def_1339 () Bool (or .def_1333 .def_1338))
(define-fun .def_1332 () Bool (= call_rtp.ite8 call_rtp.ite5))
(define-fun .def_1334 () Bool (or .def_1332 .def_1333))
(define-fun .def_1328 () Bool (= call_rtp.ite7 call_rtp.ite8))
(define-fun .def_1330 () Bool (or .def_1328 param_e02))
(define-fun .def_1335 () Bool (and .def_1330 .def_1334))
(define-fun .def_1340 () Bool (and .def_1335 .def_1339))
(define-fun .def_1343 () Bool (and .def_1340 .def_1342))
(define-fun .def_1324 () Bool (= call_rtp.ite9 call_rtp.ite4))
(define-fun .def_1325 () Bool (or .def_1138 .def_1324))
(define-fun .def_1321 () Bool (= call_rtp.ite9 call_rtp.ite8))
(define-fun .def_1322 () Bool (or param_e01 .def_1321))
(define-fun .def_1326 () Bool (and .def_1322 .def_1325))
(define-fun .def_1315 () Bool (= call_rtp.ite46 call_rtp.ite43))
(define-fun .def_1316 () Bool (or .def_1131 .def_1315))
(define-fun .def_1312 () Bool (= call_rtp.ite45 call_rtp.ite46))
(define-fun .def_1313 () Bool (or param_e11 .def_1312))
(define-fun .def_1317 () Bool (and .def_1313 .def_1316))
(define-fun .def_1308 () Bool (= call_rtp.ite47 call_rtp.ite42))
(define-fun .def_1309 () Bool (or .def_1124 .def_1308))
(define-fun .def_1305 () Bool (= call_rtp.ite47 call_rtp.ite46))
(define-fun .def_1306 () Bool (or param_e10 .def_1305))
(define-fun .def_1310 () Bool (and .def_1306 .def_1309))
(define-fun .def_1300 () Bool (= call_rtp.ite39 call_rtp.ite36))
(define-fun .def_1301 () Bool (or .def_1117 .def_1300))
(define-fun .def_1297 () Bool (= call_rtp.ite38 call_rtp.ite39))
(define-fun .def_1298 () Bool (or param_e09 .def_1297))
(define-fun .def_1302 () Bool (and .def_1298 .def_1301))
(define-fun .def_1294 () Bool (= env call_Sofar.Sofar))
(define-fun .def_1291 () Bool (= erreur call_rtp.erreur))
(define-fun .def_1287 () Bool (= _X9_ call_rtp._X9_))
(define-fun .def_1283 () Bool (= _X8_ call_rtp._X8_))
(define-fun .def_1279 () Bool (= _X7_ call_rtp._X7_))
(define-fun .def_1275 () Bool (= _X6_ call_rtp._X6_))
(define-fun .def_1272 () Bool (= _X5_ call_rtp._X5_))
(define-fun .def_1266 () Bool (= call_rtp.ite34 call_rtp.ite35))
(define-fun .def_1267 () Bool (or param_e08 .def_1266))
(define-fun .def_1263 () Bool (= call_rtp.ite32 call_rtp.ite35))
(define-fun .def_1264 () Bool (or .def_1258 .def_1263))
(define-fun .def_1257 () Bool (= call_rtp.ite29 call_rtp.ite26))
(define-fun .def_1259 () Bool (or .def_1257 .def_1258))
(define-fun .def_1253 () Bool (= call_rtp.ite28 call_rtp.ite29))
(define-fun .def_1255 () Bool (or .def_1253 param_e08))
(define-fun .def_1260 () Bool (and .def_1255 .def_1259))
(define-fun .def_1265 () Bool (and .def_1260 .def_1264))
(define-fun .def_1268 () Bool (and .def_1265 .def_1267))
(define-fun .def_1251 () Bool (= _X4_ call_rtp._X4_))
(define-fun .def_1247 () Bool (= _X3_ call_rtp._X3_))
(define-fun .def_1243 () Bool (= _X2_ call_rtp._X2_))
(define-fun .def_1239 () Bool (= _X1_ call_rtp._X1_))
(define-fun .def_1233 () Bool (<= 0 _X6_))
(define-fun .def_1232 () Bool (not env))
(define-fun .def_1234 () Bool (or .def_1232 .def_1233))
(define-fun .def_1235 () Bool (= _OK_ .def_1234))
(define-fun .def_1226 () Bool (= call_rtp.ite30 call_rtp.ite29))
(define-fun .def_1227 () Bool (or param_e07 .def_1226))
(define-fun .def_1222 () Bool (= call_rtp.ite30 call_rtp.ite25))
(define-fun .def_1223 () Bool (or .def_1218 .def_1222))
(define-fun .def_1217 () Bool (= call_rtp.ite48 call_rtp.ite41))
(define-fun .def_1219 () Bool (or .def_1217 .def_1218))
(define-fun .def_1213 () Bool (= call_rtp.ite48 call_rtp.ite47))
(define-fun .def_1215 () Bool (or .def_1213 param_e07))
(define-fun .def_1220 () Bool (and .def_1215 .def_1219))
(define-fun .def_1224 () Bool (and .def_1220 .def_1223))
(define-fun .def_1228 () Bool (and .def_1224 .def_1227))
(define-fun .def_1208 () Bool (= call_rtp.ite49 call_rtp.ite40))
(define-fun .def_1209 () Bool (or .def_1110 .def_1208))
(define-fun .def_1205 () Bool (= call_rtp.ite49 call_rtp.ite48))
(define-fun .def_1206 () Bool (or param_e05 .def_1205))
(define-fun .def_1210 () Bool (and .def_1206 .def_1209))
(define-fun .def_1200 () Bool (= call_rtp.ite31 call_rtp.ite24))
(define-fun .def_1201 () Bool (or .def_1104 .def_1200))
(define-fun .def_1197 () Bool (= call_rtp.ite31 call_rtp.ite30))
(define-fun .def_1198 () Bool (or param_e06 .def_1197))
(define-fun .def_1202 () Bool (and .def_1198 .def_1201))
(define-fun .def_1211 () Bool (and .def_1202 .def_1210))
(define-fun .def_1229 () Bool (and .def_1211 .def_1228))
(define-fun .def_1236 () Bool (and .def_1229 .def_1235))
(define-fun .def_1240 () Bool (and .def_1236 .def_1239))
(define-fun .def_1244 () Bool (and .def_1240 .def_1243))
(define-fun .def_1248 () Bool (and .def_1244 .def_1247))
(define-fun .def_1252 () Bool (and .def_1248 .def_1251))
(define-fun .def_1269 () Bool (and .def_1252 .def_1268))
(define-fun .def_1273 () Bool (and .def_1269 .def_1272))
(define-fun .def_1276 () Bool (and .def_1273 .def_1275))
(define-fun .def_1280 () Bool (and .def_1276 .def_1279))
(define-fun .def_1284 () Bool (and .def_1280 .def_1283))
(define-fun .def_1288 () Bool (and .def_1284 .def_1287))
(define-fun .def_1292 () Bool (and .def_1288 .def_1291))
(define-fun .def_1295 () Bool (and .def_1292 .def_1294))
(define-fun .def_1303 () Bool (and .def_1295 .def_1302))
(define-fun .def_1311 () Bool (and .def_1303 .def_1310))
(define-fun .def_1318 () Bool (and .def_1311 .def_1317))
(define-fun .def_1327 () Bool (and .def_1318 .def_1326))
(define-fun .def_1344 () Bool (and .def_1327 .def_1343))
(define-fun .def_1353 () Bool (and .def_1344 .def_1352))
(define-fun .def_1370 () Bool (and .def_1353 .def_1369))
(define-fun .def_1380 () Bool (and .def_1370 .def_1379))
(define-fun .def_1382 () Bool (and .def_1380 .def_1381))
(define-fun .def_1384 () Bool (and .def_1382 .def_1383))
(define-fun .def_1386 () Bool (and .def_1384 .def_1385))
(define-fun .def_1388 () Bool (and .def_1386 .def_1387))
(define-fun .def_1390 () Bool (and .def_1388 .def_1389))
(define-fun .def_1392 () Bool (and .def_1390 .def_1391))
(define-fun .def_1394 () Bool (and .def_1392 .def_1393))
(define-fun .def_1396 () Bool (and .def_1394 .def_1395))
(define-fun .def_1398 () Bool (and .def_1396 .def_1397))
(define-fun .def_1500 () Bool (and .def_1398 .def_1499))
(define-fun .def_1502 () Bool (and .def_1500 .def_1501))
(define-fun .def_1188 () Bool (<= 32767 _X6_))
(define-fun .def_1189 () Bool (not .def_1188))
(define-fun .def_1191 () Bool (and .def_1189 call_excludes12.excludes))
(define-fun .def_1193 () Bool (= .def_1191 call_Sofar.flby))
(define-fun .def_1185 () Bool (= call_rtp.flby7 0))
(define-fun .def_1182 () Bool (= call_rtp.flby6 0))
(define-fun .def_1179 () Bool (= call_rtp.flby5 0))
(define-fun .def_1176 () Bool (= call_rtp.flby4 0))
(define-fun .def_1173 () Bool (= call_rtp.flby3 0))
(define-fun .def_1170 () Bool (= call_rtp.flby2 0))
(define-fun .def_1167 () Bool (= call_rtp.flby 1))
(define-fun .def_1164 () Bool (= call_rtp.flby9 0))
(define-fun .def_1161 () Bool (= call_rtp.flby8 0))
(define-fun .def_1155 () Bool (= call_rtp.ite11 call_rtp.ite12))
(define-fun .def_1158 () Bool (or .def_1155 .def_1157))
(define-fun .def_1149 () Bool (= call_rtp.ite44 call_rtp.ite45))
(define-fun .def_1150 () Bool (or .def_1145 .def_1149))
(define-fun .def_1143 () Bool (= call_rtp.ite6 call_rtp.ite7))
(define-fun .def_1146 () Bool (or .def_1143 .def_1145))
(define-fun .def_1151 () Bool (and .def_1146 .def_1150))
(define-fun .def_1136 () Bool (= call_rtp.ite3 call_rtp.ite2))
(define-fun .def_1139 () Bool (or .def_1136 .def_1138))
(define-fun .def_1129 () Bool (= call_rtp.ite37 call_rtp.ite38))
(define-fun .def_1132 () Bool (or .def_1129 .def_1131))
(define-fun .def_1122 () Bool (= call_rtp.ite33 call_rtp.ite34))
(define-fun .def_1125 () Bool (or .def_1122 .def_1124))
(define-fun .def_1115 () Bool (= call_rtp.ite27 call_rtp.ite28))
(define-fun .def_1118 () Bool (or .def_1115 .def_1117))
(define-fun .def_1108 () Bool (= call_rtp.ite16 call_rtp.ite17))
(define-fun .def_1111 () Bool (or .def_1108 .def_1110))
(define-fun .def_1102 () Bool (= call_rtp.ite21 call_rtp.ite22))
(define-fun .def_1105 () Bool (or .def_1102 .def_1104))
(define-fun .def_1112 () Bool (and .def_1105 .def_1111))
(define-fun .def_1119 () Bool (and .def_1112 .def_1118))
(define-fun .def_1126 () Bool (and .def_1119 .def_1125))
(define-fun .def_1133 () Bool (and .def_1126 .def_1132))
(define-fun .def_1140 () Bool (and .def_1133 .def_1139))
(define-fun .def_1152 () Bool (and .def_1140 .def_1151))
(define-fun .def_1159 () Bool (and .def_1152 .def_1158))
(define-fun .def_1162 () Bool (and .def_1159 .def_1161))
(define-fun .def_1165 () Bool (and .def_1162 .def_1164))
(define-fun .def_1168 () Bool (and .def_1165 .def_1167))
(define-fun .def_1171 () Bool (and .def_1168 .def_1170))
(define-fun .def_1174 () Bool (and .def_1171 .def_1173))
(define-fun .def_1177 () Bool (and .def_1174 .def_1176))
(define-fun .def_1180 () Bool (and .def_1177 .def_1179))
(define-fun .def_1183 () Bool (and .def_1180 .def_1182))
(define-fun .def_1186 () Bool (and .def_1183 .def_1185))
(define-fun .def_1194 () Bool (and .def_1186 .def_1193))
(define-fun .def_1503 () Bool (and .def_1194 .def_1502))
(assert .def_1503)
